32      4       
10      10      10      10      
0       0       0       0       0       3       2       4       6       
2       1       1       0       1       1       3       
3       3       7       0       3       3       5       7       8       
1       10      4       0       4       1       5       
6       3       7       0       3       5       9       10      13      14      15      
9       3       0       1       5       2       8       14      
5       0       1       4       3       3       10      13      14      
10      0       3       2       6       2       9       13      
10      0       4       2       2       2       11      12      
4       0       5       4       1       2       11      12      
5       6       3       0       3       2       16      17      
2       5       3       4       0       1       17      
4       3       4       0       9       1       17      
6       7       6       0       5       1       16      
9       4       1       0       4       1       16      
4       6       4       0       3       2       18      19      
4       2       0       5       4       2       18      19      
10      3       5       3       0       2       20      24      
8       0       3       8       4       2       20      24      
3       3       0       7       4       1       21      
8       2       0       5       6       1       22      
4       8       0       6       5       1       23      
7       4       2       0       3       2       25      27      
10      0       6       2       3       2       25      27      
1       1       3       0       5       1       26      
3       5       6       0       4       3       28      29      31      
2       1       5       5       0       2       30      31      
9       4       0       7       4       1       30      
10      4       5       1       0       1       30      
5       3       0       3       6       1       32      
9       5       0       3       4       1       32      
0       0       0       0       0       0       
